728
1 10 1
2 11 10
3 12 10
4 12 11
5 13 10
6 13 11
7 13 12
8 14 10
9 14 11
10 14 12
11 14 13
12 15 10
13 15 11
14 15 12
15 15 13
16 15 14
17 16 10
18 16 11
19 16 12
20 16 13
21 16 14
22 16 15
23 17 1
24 17 10
25 18 10
26 18 11
27 18 17
28 19 1
29 19 10
30 19 11
31 19 12
32 19 17
33 19 18
34 2 1
35 2 10
36 2 11
37 2 18
38 20 11
39 20 12
40 20 13
41 20 17
42 20 18
43 20 19
44 20 2
45 21 12
46 21 13
47 21 14
48 21 17
49 21 18
50 21 19
51 21 20
52 22 13
53 22 14
54 22 15
55 22 17
56 22 18
57 22 19
58 22 20
59 22 21
60 23 14
61 23 15
62 23 16
63 23 17
64 23 18
65 23 19
66 23 20
67 23 21
68 23 22
69 24 15
70 24 16
71 24 17
72 24 18
73 24 19
74 24 20
75 24 21
76 24 22
77 24 23
78 25 1
79 25 11
80 25 17
81 25 18
82 26 10
83 26 12
84 26 17
85 26 18
86 26 19
87 26 2
88 26 25
89 27 11
90 27 13
91 27 18
92 27 19
93 27 20
94 27 25
95 27 26
96 28 1
97 28 10
98 28 12
99 28 14
100 28 19
101 28 20
102 28 21
103 28 25
104 28 26
105 28 27
106 29 11
107 29 13
108 29 15
109 29 2
110 29 20
111 29 21
112 29 22
113 29 25
114 29 26
115 29 27
116 29 28
117 3 1
118 3 10
119 3 11
120 3 12
121 3 17
122 3 19
123 3 2
124 3 21
125 3 27
126 30 12
127 30 14
128 30 16
129 30 21
130 30 22
131 30 23
132 30 25
133 30 26
134 30 27
135 30 28
136 30 29
137 30 3
138 31 13
139 31 15
140 31 22
141 31 23
142 31 24
143 31 25
144 31 26
145 31 27
146 31 28
147 31 29
148 31 30
149 32 14
150 32 16
151 32 23
152 32 24
153 32 25
154 32 26
155 32 27
156 32 28
157 32 29
158 32 30
159 32 31
160 33 1
161 33 12
162 33 17
163 33 19
164 33 25
165 33 26
166 34 10
167 34 13
168 34 18
169 34 2
170 34 20
171 34 25
172 34 26
173 34 27
174 34 33
175 35 11
176 35 14
177 35 17
178 35 19
179 35 21
180 35 26
181 35 27
182 35 28
183 35 3
184 35 33
185 35 34
186 36 12
187 36 15
188 36 18
189 36 20
190 36 22
191 36 27
192 36 28
193 36 29
194 36 33
195 36 34
196 36 35
197 37 1
198 37 10
199 37 13
200 37 16
201 37 19
202 37 21
203 37 23
204 37 28
205 37 29
206 37 30
207 37 33
208 37 34
209 37 35
210 37 36
211 38 11
212 38 14
213 38 2
214 38 20
215 38 22
216 38 24
217 38 29
218 38 30
219 38 31
220 38 33
221 38 34
222 38 35
223 38 36
224 38 37
225 39 12
226 39 15
227 39 21
228 39 23
229 39 3
230 39 30
231 39 31
232 39 32
233 39 33
234 39 34
235 39 35
236 39 36
237 39 37
238 39 38
239 4 1
240 4 11
241 4 12
242 4 13
243 4 18
244 4 2
245 4 20
246 4 22
247 4 25
248 4 28
249 4 3
250 4 31
251 4 36
252 40 13
253 40 16
254 40 22
255 40 24
256 40 31
257 40 32
258 40 33
259 40 34
260 40 35
261 40 36
262 40 37
263 40 38
264 40 39
265 40 4
266 41 1
267 41 13
268 41 17
269 41 20
270 41 25
271 41 27
272 41 33
273 41 34
274 42 10
275 42 14
276 42 18
277 42 2
278 42 21
279 42 26
280 42 28
281 42 33
282 42 34
283 42 35
284 42 41
285 43 11
286 43 15
287 43 19
288 43 22
289 43 25
290 43 27
291 43 29
292 43 3
293 43 34
294 43 35
295 43 36
296 43 41
297 43 42
298 44 12
299 44 16
300 44 17
301 44 20
302 44 23
303 44 26
304 44 28
305 44 30
306 44 35
307 44 36
308 44 37
309 44 4
310 44 41
311 44 42
312 44 43
313 45 13
314 45 18
315 45 21
316 45 24
317 45 27
318 45 29
319 45 31
320 45 36
321 45 37
322 45 38
323 45 41
324 45 42
325 45 43
326 45 44
327 46 1
328 46 10
329 46 14
330 46 19
331 46 22
332 46 28
333 46 30
334 46 32
335 46 37
336 46 38
337 46 39
338 46 41
339 46 42
340 46 43
341 46 44
342 46 45
343 47 11
344 47 15
345 47 2
346 47 20
347 47 23
348 47 29
349 47 31
350 47 38
351 47 39
352 47 40
353 47 41
354 47 42
355 47 43
356 47 44
357 47 45
358 47 46
359 48 12
360 48 16
361 48 21
362 48 24
363 48 3
364 48 30
365 48 32
366 48 39
367 48 40
368 48 41
369 48 42
370 48 43
371 48 44
372 48 45
373 48 46
374 48 47
375 49 1
376 49 14
377 49 17
378 49 21
379 49 25
380 49 28
381 49 33
382 49 35
383 49 41
384 49 42
385 5 1
386 5 12
387 5 13
388 5 14
389 5 19
390 5 2
391 5 21
392 5 23
393 5 26
394 5 29
395 5 3
396 5 32
397 5 33
398 5 37
399 5 4
400 5 45
401 50 10
402 50 15
403 50 18
404 50 2
405 50 22
406 50 26
407 50 29
408 50 34
409 50 36
410 50 41
411 50 42
412 50 43
413 50 49
414 51 11
415 51 16
416 51 19
417 51 23
418 51 27
419 51 3
420 51 30
421 51 33
422 51 35
423 51 37
424 51 42
425 51 43
426 51 44
427 51 49
428 51 50
429 52 12
430 52 20
431 52 24
432 52 25
433 52 28
434 52 31
435 52 34
436 52 36
437 52 38
438 52 4
439 52 43
440 52 44
441 52 45
442 52 49
443 52 50
444 52 51
445 53 13
446 53 17
447 53 21
448 53 26
449 53 29
450 53 32
451 53 35
452 53 37
453 53 39
454 53 44
455 53 45
456 53 46
457 53 49
458 53 5
459 53 50
460 53 51
461 53 52
462 54 14
463 54 18
464 54 22
465 54 27
466 54 30
467 54 36
468 54 38
469 54 40
470 54 45
471 54 46
472 54 47
473 54 49
474 54 50
475 54 51
476 54 52
477 54 53
478 55 1
479 55 10
480 55 15
481 55 19
482 55 23
483 55 28
484 55 31
485 55 37
486 55 39
487 55 46
488 55 47
489 55 48
490 55 49
491 55 50
492 55 51
493 55 52
494 55 53
495 55 54
496 56 11
497 56 16
498 56 2
499 56 20
500 56 24
501 56 29
502 56 32
503 56 38
504 56 40
505 56 47
506 56 48
507 56 49
508 56 50
509 56 51
510 56 52
511 56 53
512 56 54
513 56 55
514 57 1
515 57 15
516 57 17
517 57 22
518 57 25
519 57 29
520 57 33
521 57 36
522 57 41
523 57 43
524 57 49
525 57 50
526 58 10
527 58 16
528 58 18
529 58 2
530 58 23
531 58 26
532 58 30
533 58 34
534 58 37
535 58 42
536 58 44
537 58 49
538 58 50
539 58 51
540 58 57
541 59 11
542 59 19
543 59 24
544 59 27
545 59 3
546 59 31
547 59 35
548 59 38
549 59 41
550 59 43
551 59 45
552 59 50
553 59 51
554 59 52
555 59 57
556 59 58
557 6 1
558 6 13
559 6 14
560 6 15
561 6 2
562 6 20
563 6 22
564 6 24
565 6 27
566 6 3
567 6 30
568 6 34
569 6 38
570 6 4
571 6 41
572 6 46
573 6 5
574 6 54
575 60 12
576 60 20
577 60 28
578 60 32
579 60 33
580 60 36
581 60 39
582 60 4
583 60 42
584 60 44
585 60 46
586 60 51
587 60 52
588 60 53
589 60 57
590 60 58
591 60 59
592 61 13
593 61 21
594 61 25
595 61 29
596 61 34
597 61 37
598 61 40
599 61 43
600 61 45
601 61 47
602 61 5
603 61 52
604 61 53
605 61 54
606 61 57
607 61 58
608 61 59
609 61 60
610 62 14
611 62 17
612 62 22
613 62 26
614 62 30
615 62 35
616 62 38
617 62 44
618 62 46
619 62 48
620 62 53
621 62 54
622 62 55
623 62 57
624 62 58
625 62 59
626 62 6
627 62 60
628 62 61
629 63 15
630 63 18
631 63 23
632 63 27
633 63 31
634 63 36
635 63 39
636 63 45
637 63 47
638 63 54
639 63 55
640 63 56
641 63 57
642 63 58
643 63 59
644 63 60
645 63 61
646 63 62
647 64 1
648 64 10
649 64 16
650 64 19
651 64 24
652 64 28
653 64 32
654 64 37
655 64 40
656 64 46
657 64 48
658 64 55
659 64 56
660 64 57
661 64 58
662 64 59
663 64 60
664 64 61
665 64 62
666 64 63
667 7 1
668 7 14
669 7 15
670 7 16
671 7 2
672 7 21
673 7 23
674 7 28
675 7 3
676 7 31
677 7 35
678 7 39
679 7 4
680 7 42
681 7 47
682 7 49
683 7 5
684 7 55
685 7 6
686 7 63
687 8 1
688 8 15
689 8 16
690 8 2
691 8 22
692 8 24
693 8 29
694 8 3
695 8 32
696 8 36
697 8 4
698 8 40
699 8 43
700 8 48
701 8 5
702 8 50
703 8 56
704 8 57
705 8 6
706 8 64
707 8 7
708 9 1
709 9 10
710 9 11
711 9 12
712 9 13
713 9 14
714 9 15
715 9 16
716 9 17
717 9 18
718 9 2
719 9 25
720 9 27
721 9 33
722 9 36
723 9 41
724 9 45
725 9 49
726 9 54
727 9 57
728 9 63